(set-info :source |printed by MathSAT|)
(declare-fun call_ticket3i.ite21 () Int)
(declare-fun param_init_t () Int)
(declare-fun call_ticket3i.flby8 () Int)
(declare-fun call_ticket3i.ite28 () Int)
(declare-fun call_ticket3i.ite31 () Int)
(declare-fun call_ticket3i.a2 () Int)
(declare-fun call_ticket3i.flby6 () Int)
(declare-fun a3 () Int)
(declare-fun call_ticket3i.flby2 () Int)
(declare-fun call_ticket3i.ite33 () Int)
(declare-fun call_ticket3i.ite14 () Int)
(declare-fun param_init_a2 () Int)
(declare-fun call_ticket3i.ite19 () Int)
(declare-fun call_ticket3i.ite () Bool)
(declare-fun call_ticket3i.flby3 () Int)
(declare-fun call_ticket3i.s () Int)
(declare-fun call_ticket3i.ite11 () Int)
(declare-fun call_ticket3i.g7 () Bool)
(declare-fun call_excludes9.excludes () Bool)
(declare-fun call_ticket3i.ite9 () Int)
(declare-fun a1 () Int)
(declare-fun erreur_ticket3i () Bool)
(declare-fun call_ticket3i.ite37 () Int)
(declare-fun call_ticket3i.ite6 () Int)
(declare-fun _OK_ () Bool)
(declare-fun call_ticket3i.g6 () Bool)
(declare-fun call_ticket3i.ite34 () Int)
(declare-fun call_ticket3i.flby5 () Int)
(declare-fun call_ticket3i.p3 () Int)
(declare-fun call_ticket3i.ite23 () Int)
(declare-fun param_e6 () Bool)
(declare-fun call_ticket3i.flby () Int)
(declare-fun call_ticket3i.g1 () Bool)
(declare-fun call_ticket3i.g5 () Bool)
(declare-fun p2 () Int)
(declare-fun t () Int)
(declare-fun call_ticket3i.ite25 () Int)
(declare-fun call_ticket3i.ite12 () Int)
(declare-fun param_e7 () Bool)
(declare-fun call_ticket3i.p2 () Int)
(declare-fun call_ticket3i.g2 () Bool)
(declare-fun call_ticket3i.a3 () Int)
(declare-fun call_ticket3i.p1 () Int)
(declare-fun call_ticket3i.ite22 () Int)
(declare-fun call_ticket3i.flby4 () Int)
(declare-fun param_e9 () Bool)
(declare-fun call_ticket3i.ite26 () Int)
(declare-fun call_ticket3i.ite4 () Int)
(declare-fun param_init_a3 () Int)
(declare-fun call_ticket3i.g4 () Bool)
(declare-fun call_ticket3i.ite30 () Int)
(declare-fun call_ticket3i.ite35 () Int)
(declare-fun call_ticket3i.ite8 () Int)
(declare-fun call_ticket3i.flby7 () Int)
(declare-fun param_e2 () Bool)
(declare-fun call_ticket3i.ite3 () Int)
(declare-fun param_e4 () Bool)
(declare-fun call_ticket3i.ite24 () Int)
(declare-fun p1 () Int)
(declare-fun call_Sofar.flby () Bool)
(declare-fun call_ticket3i.ite17 () Int)
(declare-fun call_ticket3i.a1 () Int)
(declare-fun call_ticket3i.ite32 () Int)
(declare-fun call_ticket3i.ite15 () Int)
(declare-fun a2 () Int)
(declare-fun call_ticket3i.g9 () Bool)
(declare-fun p3 () Int)
(declare-fun call_ticket3i.ite18 () Int)
(declare-fun call_ticket3i.ite10 () Int)
(declare-fun param_init_a1 () Int)
(declare-fun param_e5 () Bool)
(declare-fun call_ticket3i.ite7 () Int)
(declare-fun call_ticket3i.ite27 () Int)
(declare-fun env () Bool)
(declare-fun call_ticket3i.ite5 () Int)
(declare-fun call_ticket3i.ite2 () Int)
(declare-fun param_e3 () Bool)
(declare-fun param_e1 () Bool)
(declare-fun call_ticket3i.ite16 () Int)
(declare-fun param_e8 () Bool)
(declare-fun call_Sofar.Sofar () Bool)
(declare-fun s () Int)
(declare-fun call_ticket3i.t () Int)
(declare-fun call_ticket3i.ite29 () Int)
(declare-fun call_ticket3i.erreur_ticket3i () Bool)
(declare-fun call_ticket3i.ite36 () Int)
(declare-fun call_ticket3i.g8 () Bool)
(declare-fun call_ticket3i.ite20 () Int)
(declare-fun call_ticket3i.ite13 () Int)
(declare-fun call_ticket3i.g3 () Bool)
(define-fun .def_1307 () Bool (= call_Sofar.flby call_Sofar.Sofar))
(define-fun .def_1171 () Bool (not param_e2))
(define-fun .def_956 () Bool (not param_e1))
(define-fun .def_1244 () Bool (and .def_956 .def_1171))
(define-fun .def_963 () Bool (not param_e3))
(define-fun .def_1245 () Bool (and .def_963 .def_1244))
(define-fun .def_970 () Bool (not param_e4))
(define-fun .def_1246 () Bool (and .def_970 .def_1245))
(define-fun .def_1203 () Bool (not param_e5))
(define-fun .def_1247 () Bool (and .def_1203 .def_1246))
(define-fun .def_977 () Bool (not param_e6))
(define-fun .def_1248 () Bool (and .def_977 .def_1247))
(define-fun .def_933 () Bool (not param_e7))
(define-fun .def_1249 () Bool (and .def_933 .def_1248))
(define-fun .def_1118 () Bool (not param_e8))
(define-fun .def_1250 () Bool (and .def_1118 .def_1249))
(define-fun .def_944 () Bool (not param_e9))
(define-fun .def_1295 () Bool (and .def_944 .def_1250))
(define-fun .def_1287 () Bool (and param_e1 .def_1171))
(define-fun .def_1288 () Bool (and .def_963 .def_1287))
(define-fun .def_1289 () Bool (and .def_970 .def_1288))
(define-fun .def_1290 () Bool (and .def_1203 .def_1289))
(define-fun .def_1291 () Bool (and .def_977 .def_1290))
(define-fun .def_1292 () Bool (and .def_933 .def_1291))
(define-fun .def_1293 () Bool (and .def_1118 .def_1292))
(define-fun .def_1294 () Bool (and .def_944 .def_1293))
(define-fun .def_1296 () Bool (or .def_1294 .def_1295))
(define-fun .def_1279 () Bool (and .def_956 param_e2))
(define-fun .def_1280 () Bool (and .def_963 .def_1279))
(define-fun .def_1281 () Bool (and .def_970 .def_1280))
(define-fun .def_1282 () Bool (and .def_1203 .def_1281))
(define-fun .def_1283 () Bool (and .def_977 .def_1282))
(define-fun .def_1284 () Bool (and .def_933 .def_1283))
(define-fun .def_1285 () Bool (and .def_1118 .def_1284))
(define-fun .def_1286 () Bool (and .def_944 .def_1285))
(define-fun .def_1297 () Bool (or .def_1286 .def_1296))
(define-fun .def_1272 () Bool (and param_e3 .def_1244))
(define-fun .def_1273 () Bool (and .def_970 .def_1272))
(define-fun .def_1274 () Bool (and .def_1203 .def_1273))
(define-fun .def_1275 () Bool (and .def_977 .def_1274))
(define-fun .def_1276 () Bool (and .def_933 .def_1275))
(define-fun .def_1277 () Bool (and .def_1118 .def_1276))
(define-fun .def_1278 () Bool (and .def_944 .def_1277))
(define-fun .def_1298 () Bool (or .def_1278 .def_1297))
(define-fun .def_1266 () Bool (and param_e4 .def_1245))
(define-fun .def_1267 () Bool (and .def_1203 .def_1266))
(define-fun .def_1268 () Bool (and .def_977 .def_1267))
(define-fun .def_1269 () Bool (and .def_933 .def_1268))
(define-fun .def_1270 () Bool (and .def_1118 .def_1269))
(define-fun .def_1271 () Bool (and .def_944 .def_1270))
(define-fun .def_1299 () Bool (or .def_1271 .def_1298))
(define-fun .def_1261 () Bool (and param_e5 .def_1246))
(define-fun .def_1262 () Bool (and .def_977 .def_1261))
(define-fun .def_1263 () Bool (and .def_933 .def_1262))
(define-fun .def_1264 () Bool (and .def_1118 .def_1263))
(define-fun .def_1265 () Bool (and .def_944 .def_1264))
(define-fun .def_1300 () Bool (or .def_1265 .def_1299))
(define-fun .def_1257 () Bool (and param_e6 .def_1247))
(define-fun .def_1258 () Bool (and .def_933 .def_1257))
(define-fun .def_1259 () Bool (and .def_1118 .def_1258))
(define-fun .def_1260 () Bool (and .def_944 .def_1259))
(define-fun .def_1301 () Bool (or .def_1260 .def_1300))
(define-fun .def_1254 () Bool (and param_e7 .def_1248))
(define-fun .def_1255 () Bool (and .def_1118 .def_1254))
(define-fun .def_1256 () Bool (and .def_944 .def_1255))
(define-fun .def_1302 () Bool (or .def_1256 .def_1301))
(define-fun .def_1252 () Bool (and param_e8 .def_1249))
(define-fun .def_1253 () Bool (and .def_944 .def_1252))
(define-fun .def_1303 () Bool (or .def_1253 .def_1302))
(define-fun .def_1251 () Bool (and param_e9 .def_1250))
(define-fun .def_1304 () Bool (or .def_1251 .def_1303))
(define-fun .def_1305 () Bool (= call_excludes9.excludes .def_1304))
(define-fun .def_1242 () Bool (= call_ticket3i.erreur_ticket3i call_ticket3i.ite))
(define-fun .def_1240 () Bool (= call_ticket3i.flby8 call_ticket3i.a3))
(define-fun .def_1238 () Bool (= call_ticket3i.flby7 call_ticket3i.a2))
(define-fun .def_1236 () Bool (= call_ticket3i.flby6 call_ticket3i.a1))
(define-fun .def_1234 () Bool (= call_ticket3i.flby5 call_ticket3i.s))
(define-fun .def_1232 () Bool (= call_ticket3i.flby4 call_ticket3i.t))
(define-fun .def_1230 () Bool (= call_ticket3i.flby3 call_ticket3i.p3))
(define-fun .def_1228 () Bool (= call_ticket3i.flby2 call_ticket3i.p2))
(define-fun .def_1225 () Bool (= call_ticket3i.flby call_ticket3i.p1))
(define-fun .def_1219 () Bool (<= 3 call_ticket3i.p3))
(define-fun .def_1217 () Bool (<= 3 call_ticket3i.p2))
(define-fun .def_1216 () Bool (<= 3 call_ticket3i.p1))
(define-fun .def_1218 () Bool (or .def_1216 .def_1217))
(define-fun .def_1220 () Bool (or .def_1218 .def_1219))
(define-fun .def_1222 () Bool (not .def_1220))
(define-fun .def_1223 () Bool (or call_ticket3i.ite .def_1222))
(define-fun .def_1215 () Bool (not call_ticket3i.ite))
(define-fun .def_1221 () Bool (or .def_1215 .def_1220))
(define-fun .def_1224 () Bool (and .def_1221 .def_1223))
(define-fun .def_1226 () Bool (and .def_1224 .def_1225))
(define-fun .def_1210 () Bool (= call_ticket3i.ite30 call_ticket3i.ite27))
(define-fun .def_1211 () Bool (or .def_977 .def_1210))
(define-fun .def_1207 () Bool (= call_ticket3i.ite29 call_ticket3i.ite30))
(define-fun .def_1208 () Bool (or param_e6 .def_1207))
(define-fun .def_1212 () Bool (and .def_1208 .def_1211))
(define-fun .def_1202 () Bool (= call_ticket3i.ite9 call_ticket3i.ite12))
(define-fun .def_1204 () Bool (or .def_1202 .def_1203))
(define-fun .def_1199 () Bool (= call_ticket3i.ite11 call_ticket3i.ite12))
(define-fun .def_1201 () Bool (or .def_1199 param_e5))
(define-fun .def_1205 () Bool (and .def_1201 .def_1204))
(define-fun .def_1195 () Bool (= call_ticket3i.ite23 call_ticket3i.ite24))
(define-fun .def_1196 () Bool (or param_e4 .def_1195))
(define-fun .def_1192 () Bool (= call_ticket3i.ite24 call_ticket3i.ite21))
(define-fun .def_1193 () Bool (or .def_970 .def_1192))
(define-fun .def_1188 () Bool (= call_ticket3i.ite8 call_ticket3i.ite13))
(define-fun .def_1189 () Bool (or .def_970 .def_1188))
(define-fun .def_1186 () Bool (= call_ticket3i.ite13 call_ticket3i.ite12))
(define-fun .def_1187 () Bool (or param_e4 .def_1186))
(define-fun .def_1190 () Bool (and .def_1187 .def_1189))
(define-fun .def_1194 () Bool (and .def_1190 .def_1193))
(define-fun .def_1197 () Bool (and .def_1194 .def_1196))
(define-fun .def_1180 () Bool (= call_ticket3i.ite31 call_ticket3i.ite26))
(define-fun .def_1181 () Bool (or .def_963 .def_1180))
(define-fun .def_1177 () Bool (= call_ticket3i.ite31 call_ticket3i.ite30))
(define-fun .def_1178 () Bool (or param_e3 .def_1177))
(define-fun .def_1182 () Bool (and .def_1178 .def_1181))
(define-fun .def_1170 () Bool (= call_ticket3i.ite3 call_ticket3i.ite6))
(define-fun .def_1172 () Bool (or .def_1170 .def_1171))
(define-fun .def_1167 () Bool (= call_ticket3i.ite5 call_ticket3i.ite6))
(define-fun .def_1169 () Bool (or .def_1167 param_e2))
(define-fun .def_1173 () Bool (and .def_1169 .def_1172))
(define-fun .def_1163 () Bool (= call_ticket3i.ite25 call_ticket3i.ite24))
(define-fun .def_1164 () Bool (or param_e1 .def_1163))
(define-fun .def_1159 () Bool (= call_ticket3i.ite20 call_ticket3i.ite25))
(define-fun .def_1160 () Bool (or .def_956 .def_1159))
(define-fun .def_1154 () Bool (= call_ticket3i.ite2 call_ticket3i.ite7))
(define-fun .def_1155 () Bool (or .def_956 .def_1154))
(define-fun .def_1152 () Bool (= call_ticket3i.ite7 call_ticket3i.ite6))
(define-fun .def_1153 () Bool (or param_e1 .def_1152))
(define-fun .def_1156 () Bool (and .def_1153 .def_1155))
(define-fun .def_1161 () Bool (and .def_1156 .def_1160))
(define-fun .def_1165 () Bool (and .def_1161 .def_1164))
(define-fun .def_1148 () Bool (= env call_Sofar.Sofar))
(define-fun .def_1145 () Bool (= erreur_ticket3i call_ticket3i.erreur_ticket3i))
(define-fun .def_1142 () Bool (= a3 call_ticket3i.a3))
(define-fun .def_1138 () Bool (= a2 call_ticket3i.a2))
(define-fun .def_1134 () Bool (= a1 call_ticket3i.a1))
(define-fun .def_1130 () Bool (= s call_ticket3i.s))
(define-fun .def_1126 () Bool (= call_ticket3i.t t))
(define-fun .def_1123 () Bool (= p3 call_ticket3i.p3))
(define-fun .def_1117 () Bool (= call_ticket3i.ite15 call_ticket3i.ite18))
(define-fun .def_1119 () Bool (or .def_1117 .def_1118))
(define-fun .def_1114 () Bool (= call_ticket3i.ite17 call_ticket3i.ite18))
(define-fun .def_1116 () Bool (or .def_1114 param_e8))
(define-fun .def_1120 () Bool (and .def_1116 .def_1119))
(define-fun .def_1112 () Bool (= p2 call_ticket3i.p2))
(define-fun .def_1109 () Bool (= p1 call_ticket3i.p1))
(define-fun .def_1104 () Bool (= call_ticket3i.ite14 call_ticket3i.ite19))
(define-fun .def_1105 () Bool (or .def_933 .def_1104))
(define-fun .def_1102 () Bool (= call_ticket3i.ite19 call_ticket3i.ite18))
(define-fun .def_1103 () Bool (or param_e7 .def_1102))
(define-fun .def_1106 () Bool (and .def_1103 .def_1105))
(define-fun .def_1094 () Int (+ p2 p3))
(define-fun .def_1095 () Int (+ p1 .def_1094))
(define-fun .def_1096 () Bool (<= .def_1095 8))
(define-fun .def_1090 () Bool (<= p3 3))
(define-fun .def_1088 () Bool (<= 0 p3))
(define-fun .def_1085 () Bool (<= p2 3))
(define-fun .def_1083 () Bool (<= 0 p2))
(define-fun .def_1080 () Bool (<= p1 3))
(define-fun .def_1078 () Bool (<= 0 p1))
(define-fun .def_1076 () Bool (not erreur_ticket3i))
(define-fun .def_1079 () Bool (and .def_1076 .def_1078))
(define-fun .def_1081 () Bool (and .def_1079 .def_1080))
(define-fun .def_1084 () Bool (and .def_1081 .def_1083))
(define-fun .def_1086 () Bool (and .def_1084 .def_1085))
(define-fun .def_1089 () Bool (and .def_1086 .def_1088))
(define-fun .def_1091 () Bool (and .def_1089 .def_1090))
(define-fun .def_1097 () Bool (and .def_1091 .def_1096))
(define-fun .def_1074 () Bool (not env))
(define-fun .def_1098 () Bool (or .def_1074 .def_1097))
(define-fun .def_1099 () Bool (= _OK_ .def_1098))
(define-fun .def_1107 () Bool (and .def_1099 .def_1106))
(define-fun .def_1110 () Bool (and .def_1107 .def_1109))
(define-fun .def_1113 () Bool (and .def_1110 .def_1112))
(define-fun .def_1121 () Bool (and .def_1113 .def_1120))
(define-fun .def_1124 () Bool (and .def_1121 .def_1123))
(define-fun .def_1127 () Bool (and .def_1124 .def_1126))
(define-fun .def_1131 () Bool (and .def_1127 .def_1130))
(define-fun .def_1135 () Bool (and .def_1131 .def_1134))
(define-fun .def_1139 () Bool (and .def_1135 .def_1138))
(define-fun .def_1143 () Bool (and .def_1139 .def_1142))
(define-fun .def_1146 () Bool (and .def_1143 .def_1145))
(define-fun .def_1149 () Bool (and .def_1146 .def_1148))
(define-fun .def_1166 () Bool (and .def_1149 .def_1165))
(define-fun .def_1174 () Bool (and .def_1166 .def_1173))
(define-fun .def_1183 () Bool (and .def_1174 .def_1182))
(define-fun .def_1198 () Bool (and .def_1183 .def_1197))
(define-fun .def_1206 () Bool (and .def_1198 .def_1205))
(define-fun .def_1213 () Bool (and .def_1206 .def_1212))
(define-fun .def_1227 () Bool (and .def_1213 .def_1226))
(define-fun .def_1229 () Bool (and .def_1227 .def_1228))
(define-fun .def_1231 () Bool (and .def_1229 .def_1230))
(define-fun .def_1233 () Bool (and .def_1231 .def_1232))
(define-fun .def_1235 () Bool (and .def_1233 .def_1234))
(define-fun .def_1237 () Bool (and .def_1235 .def_1236))
(define-fun .def_1239 () Bool (and .def_1237 .def_1238))
(define-fun .def_1241 () Bool (and .def_1239 .def_1240))
(define-fun .def_1243 () Bool (and .def_1241 .def_1242))
(define-fun .def_1306 () Bool (and .def_1243 .def_1305))
(define-fun .def_1308 () Bool (and .def_1306 .def_1307))
(define-fun .def_1067 () Bool (<= 0 param_init_t))
(define-fun .def_1065 () Bool (<= 0 param_init_a3))
(define-fun .def_1063 () Bool (<= 0 param_init_a2))
(define-fun .def_1060 () Bool (<= 0 param_init_a1))
(define-fun .def_1062 () Bool (and .def_1060 call_excludes9.excludes))
(define-fun .def_1064 () Bool (and .def_1062 .def_1063))
(define-fun .def_1066 () Bool (and .def_1064 .def_1065))
(define-fun .def_1068 () Bool (and .def_1066 .def_1067))
(define-fun .def_1070 () Bool (= .def_1068 call_Sofar.flby))
(define-fun .def_1058 () Bool (= param_init_a3 call_ticket3i.flby8))
(define-fun .def_1054 () Bool (= param_init_a2 call_ticket3i.flby7))
(define-fun .def_1050 () Bool (= param_init_a1 call_ticket3i.flby6))
(define-fun .def_1046 () Bool (= call_ticket3i.t call_ticket3i.flby5))
(define-fun .def_1042 () Bool (= param_init_t call_ticket3i.flby4))
(define-fun .def_1038 () Bool (= call_ticket3i.flby3 0))
(define-fun .def_1035 () Bool (= call_ticket3i.flby2 0))
(define-fun .def_1032 () Bool (= call_ticket3i.flby 0))
(define-fun .def_1028 () Bool (= call_ticket3i.ite16 0))
(define-fun .def_1027 () Bool (not call_ticket3i.g9))
(define-fun .def_1029 () Bool (or .def_1027 .def_1028))
(define-fun .def_1023 () Bool (= call_ticket3i.ite15 2))
(define-fun .def_1021 () Bool (not call_ticket3i.g8))
(define-fun .def_1024 () Bool (or .def_1021 .def_1023))
(define-fun .def_1017 () Bool (= call_ticket3i.ite14 1))
(define-fun .def_1015 () Bool (not call_ticket3i.g7))
(define-fun .def_1018 () Bool (or .def_1015 .def_1017))
(define-fun .def_1011 () Bool (= call_ticket3i.ite10 0))
(define-fun .def_1010 () Bool (not call_ticket3i.g6))
(define-fun .def_1012 () Bool (or .def_1010 .def_1011))
(define-fun .def_1006 () Bool (= call_ticket3i.ite9 2))
(define-fun .def_1004 () Bool (not call_ticket3i.g5))
(define-fun .def_1007 () Bool (or .def_1004 .def_1006))
(define-fun .def_1000 () Bool (= call_ticket3i.ite8 1))
(define-fun .def_998 () Bool (not call_ticket3i.g4))
(define-fun .def_1001 () Bool (or .def_998 .def_1000))
(define-fun .def_994 () Bool (= call_ticket3i.ite4 0))
(define-fun .def_993 () Bool (not call_ticket3i.g3))
(define-fun .def_995 () Bool (or .def_993 .def_994))
(define-fun .def_989 () Bool (= call_ticket3i.ite3 2))
(define-fun .def_987 () Bool (not call_ticket3i.g2))
(define-fun .def_990 () Bool (or .def_987 .def_989))
(define-fun .def_983 () Bool (= call_ticket3i.ite2 1))
(define-fun .def_981 () Bool (not call_ticket3i.g1))
(define-fun .def_984 () Bool (or .def_981 .def_983))
(define-fun .def_975 () Bool (= call_ticket3i.ite10 call_ticket3i.ite11))
(define-fun .def_978 () Bool (or .def_975 .def_977))
(define-fun .def_968 () Bool (= call_ticket3i.ite35 call_ticket3i.ite34))
(define-fun .def_971 () Bool (or .def_968 .def_970))
(define-fun .def_961 () Bool (= call_ticket3i.ite4 call_ticket3i.ite5))
(define-fun .def_964 () Bool (or .def_961 .def_963))
(define-fun .def_954 () Bool (= call_ticket3i.ite33 call_ticket3i.ite32))
(define-fun .def_957 () Bool (or .def_954 .def_956))
(define-fun .def_948 () Bool (= call_ticket3i.ite16 call_ticket3i.ite17))
(define-fun .def_949 () Bool (or .def_944 .def_948))
(define-fun .def_942 () Bool (= call_ticket3i.ite28 call_ticket3i.ite29))
(define-fun .def_945 () Bool (or .def_942 .def_944))
(define-fun .def_950 () Bool (and .def_945 .def_949))
(define-fun .def_937 () Bool (= call_ticket3i.ite22 call_ticket3i.ite23))
(define-fun .def_938 () Bool (or .def_933 .def_937))
(define-fun .def_931 () Bool (= call_ticket3i.ite37 call_ticket3i.ite36))
(define-fun .def_934 () Bool (or .def_931 .def_933))
(define-fun .def_939 () Bool (and .def_934 .def_938))
(define-fun .def_951 () Bool (and .def_939 .def_950))
(define-fun .def_958 () Bool (and .def_951 .def_957))
(define-fun .def_965 () Bool (and .def_958 .def_964))
(define-fun .def_972 () Bool (and .def_965 .def_971))
(define-fun .def_979 () Bool (and .def_972 .def_978))
(define-fun .def_985 () Bool (and .def_979 .def_984))
(define-fun .def_991 () Bool (and .def_985 .def_990))
(define-fun .def_996 () Bool (and .def_991 .def_995))
(define-fun .def_1002 () Bool (and .def_996 .def_1001))
(define-fun .def_1008 () Bool (and .def_1002 .def_1007))
(define-fun .def_1013 () Bool (and .def_1008 .def_1012))
(define-fun .def_1019 () Bool (and .def_1013 .def_1018))
(define-fun .def_1025 () Bool (and .def_1019 .def_1024))
(define-fun .def_1030 () Bool (and .def_1025 .def_1029))
(define-fun .def_1033 () Bool (and .def_1030 .def_1032))
(define-fun .def_1036 () Bool (and .def_1033 .def_1035))
(define-fun .def_1039 () Bool (and .def_1036 .def_1038))
(define-fun .def_1043 () Bool (and .def_1039 .def_1042))
(define-fun .def_1047 () Bool (and .def_1043 .def_1046))
(define-fun .def_1051 () Bool (and .def_1047 .def_1050))
(define-fun .def_1055 () Bool (and .def_1051 .def_1054))
(define-fun .def_1059 () Bool (and .def_1055 .def_1058))
(define-fun .def_1071 () Bool (and .def_1059 .def_1070))
(define-fun .def_1309 () Bool (and .def_1071 .def_1308))
(assert .def_1309)
